data/easy_8.dzn
num_nodi = 5;
ufficio_postale = 3;
dim_borsa = 75;
max_step = 10;
elenco_lettere = [4, 15, 0, 0, 0];
distanze = [|0, 14, 25, 1, 11
|25, 0, 16, 11, 15
|10, 10, 0, 25, 24
|7, 21, 3, 0, 22
|2, 12, 22, 9, 0
|];
