data/easy_8.lp
node(1..5).

ufficio_postale(3).

dim_borsa(75).

time(1..10).

lettere(1,4).
lettere(2,15).
lettere(3,0).
lettere(4,0).
lettere(5,0).

costo_arco(1, 1, 0).
costo_arco(1, 2, 14).
costo_arco(1, 3, 25).
costo_arco(1, 4, 1).
costo_arco(1, 5, 11).

costo_arco(2, 1, 25).
costo_arco(2, 2, 0).
costo_arco(2, 3, 16).
costo_arco(2, 4, 11).
costo_arco(2, 5, 15).

costo_arco(3, 1, 10).
costo_arco(3, 2, 10).
costo_arco(3, 3, 0).
costo_arco(3, 4, 25).
costo_arco(3, 5, 24).

costo_arco(4, 1, 7).
costo_arco(4, 2, 21).
costo_arco(4, 3, 3).
costo_arco(4, 4, 0).
costo_arco(4, 5, 22).

costo_arco(5, 1, 2).
costo_arco(5, 2, 12).
costo_arco(5, 3, 22).
costo_arco(5, 4, 9).
costo_arco(5, 5, 0).

